33D32945 STP File, STP Format Version 1.0

SECTION Comment
Name "lin07-5s"
Creator "Bernd Zey"
Problem "Stochastic Steiner Tree Problem"
# Stochastic Steiner tree problem instance, base file: lin07.stp
# weight-scaling off
# parameters:
# distribution=equal
# selectRootRandomly=0
# probabilityTerminal=33
# probabilityNonTerminal=5
# 2nd stage edge-costs in [1.1000c_e, 1.3000c_e]
END

SECTION Graph
Nodes 307
Edges 526
Scenarios 5
Root 45
E 1 54 162
E 1 62 168
E 2 70 46
E 2 220 14
E 2 142 106
E 3 227 46
E 3 228 6
E 3 8 40
E 4 46 82
E 4 195 6
E 4 122 130
E 4 196 40
E 5 52 50
E 5 40 116
E 5 57 120
E 6 260 90
E 6 9 40
E 6 14 20
E 6 179 148
E 7 191 52
E 7 267 152
E 7 185 4
E 7 18 30
E 8 194 46
E 8 299 124
E 9 110 6
E 9 46 20
E 10 49 128
E 10 182 80
E 10 300 50
E 11 126 76
E 11 65 18
E 11 208 90
E 11 153 96
E 12 228 106
E 12 83 194
E 12 271 170
E 13 234 14
E 13 82 20
E 13 138 52
E 14 46 40
E 14 196 82
E 14 293 148
E 15 287 22
E 15 163 178
E 15 191 46
E 15 59 34
E 16 208 10
E 16 50 18
E 16 295 42
E 16 127 96
E 17 89 142
E 17 261 88
E 17 151 54
E 17 28 78
E 18 237 4
E 18 188 46
E 19 216 28
E 19 238 182
E 19 286 158
E 19 112 58
E 20 263 46
E 20 210 124
E 20 94 88
E 21 161 114
E 21 36 88
E 21 103 14
E 22 67 28
E 22 284 14
E 22 235 46
E 23 26 100
E 23 194 124
E 23 299 46
E 23 130 194
E 24 298 14
E 24 216 58
E 24 112 28
E 24 264 68
E 25 218 8
E 25 141 14
E 25 282 42
E 25 173 46
E 26 195 130
E 26 219 124
E 26 122 6
E 27 213 166
E 27 205 10
E 27 266 52
E 28 92 54
E 28 247 26
E 29 42 66
E 29 214 34
E 29 236 92
E 29 162 130
E 30 166 28
E 30 205 166
E 30 213 10
E 31 202 54
E 31 172 52
E 31 65 76
E 31 126 18
E 32 131 74
E 32 242 182
E 32 159 166
E 32 146 58
E 33 170 90
E 33 57 46
E 33 181 72
E 34 274 14
E 34 294 12
E 34 40 52
E 35 303 50
E 35 154 56
E 35 54 32
E 36 291 114
E 36 179 66
E 37 177 52
E 37 178 76
E 37 281 22
E 38 172 76
E 38 43 14
E 38 190 90
E 38 65 52
E 39 186 142
E 39 183 182
E 40 176 120
E 41 105 58
E 41 124 56
E 41 303 58
E 41 100 32
E 42 132 76
E 42 87 34
E 42 258 130
E 43 232 76
E 43 128 154
E 43 61 90
E 44 243 14
E 44 180 10
E 44 155 28
E 45 281 10
E 45 76 48
E 46 108 6
E 47 278 14
E 47 238 28
E 47 216 182
E 48 301 74
E 48 305 66
E 48 141 8
E 48 218 14
E 49 90 92
E 49 113 80
E 50 304 10
E 50 70 52
E 50 69 42
E 51 53 66
E 51 193 12
E 51 66 62
E 52 240 8
E 52 73 46
E 53 71 4
E 53 164 12
E 54 100 108
E 55 292 64
E 55 296 74
E 55 285 10
E 56 92 46
E 56 94 78
E 56 111 11
E 57 176 116
E 58 288 8
E 58 197 10
E 58 254 122
E 59 68 22
E 59 168 46
E 59 189 130
E 60 150 10
E 60 288 66
E 60 140 138
E 61 217 154
E 61 204 10
E 61 190 14
E 62 95 110
E 62 125 166
E 63 72 90
E 63 85 22
E 63 154 58
E 64 283 194
E 64 241 100
E 64 156 6
E 65 304 90
E 66 249 12
E 66 129 42
E 66 149 53
E 67 93 80
E 67 158 14
E 67 139 46
E 68 236 8
E 68 287 34
E 68 121 130
E 69 125 110
E 69 295 18
E 70 190 10
E 70 204 14
E 71 188 12
E 71 251 76
E 72 281 76
E 72 178 22
E 73 133 8
E 73 170 80
E 73 104 12
E 74 117 54
E 74 99 182
E 74 131 170
E 74 77 58
E 75 118 120
E 75 261 142
E 75 89 88
E 76 124 58
E 76 105 56
E 77 231 54
E 77 248 170
E 77 84 68
E 78 89 104
E 78 223 76
E 78 145 178
E 79 82 82
E 79 107 14
E 79 172 54
E 79 202 52
E 80 264 28
E 80 112 68
E 80 134 48
E 80 307 64
E 81 88 54
E 81 128 76
E 81 232 154
E 82 209 14
E 82 257 52
E 83 97 106
E 84 192 54
E 84 292 170
E 84 263 120
E 85 178 90
E 85 279 52
E 85 116 10
E 86 289 114
E 86 105 132
E 86 175 32
E 87 145 76
E 87 223 178
E 87 214 66
E 88 293 82
E 88 196 148
E 88 107 154
E 90 120 66
E 90 252 80
E 91 297 28
E 91 290 134
E 91 284 66
E 92 151 78
E 93 282 8
E 93 265 14
E 94 151 46
E 95 116 42
E 95 269 52
E 96 247 92
E 96 259 8
E 96 245 178
E 97 152 46
E 97 228 194
E 98 203 8
E 98 104 80
E 98 297 80
E 98 265 66
E 99 186 54
E 99 115 170
E 100 123 58
E 101 292 74
E 101 146 68
E 101 201 166
E 101 296 64
E 102 165 20
E 102 257 18
E 102 255 82
E 103 294 114
E 103 250 52
E 104 129 8
E 104 222 80
E 105 123 32
E 106 296 166
E 106 201 64
E 106 180 14
E 106 243 10
E 107 209 82
E 107 232 54
E 108 110 20
E 108 244 124
E 108 195 82
E 109 215 50
E 109 305 74
E 109 301 66
E 110 187 124
E 111 259 15
E 112 246 48
E 113 252 92
E 113 230 70
E 113 182 128
E 114 268 40
E 114 156 130
E 114 174 40
E 115 242 74
E 115 131 182
E 116 127 52
E 117 183 142
E 117 186 182
E 117 231 58
E 118 148 68
E 118 192 142
E 119 136 62
E 119 256 30
E 119 240 42
E 119 249 46
E 120 144 76
E 120 275 80
E 121 230 8
E 121 189 22
E 122 167 97
E 123 175 132
E 124 169 58
E 125 142 52
E 126 255 54
E 126 177 96
E 127 279 10
E 127 269 42
E 128 167 91
E 128 217 90
E 129 133 12
E 129 203 80
E 130 217 10
E 130 135 46
E 130 204 154
E 131 248 58
E 132 145 34
E 132 270 130
E 133 249 42
E 133 240 46
E 134 246 68
E 134 198 64
E 135 299 194
E 135 200 106
E 135 220 154
E 136 237 66
E 136 306 30
E 136 193 46
E 137 286 18
E 137 268 42
E 137 244 40
E 138 257 20
E 138 165 18
E 139 171 88
E 139 235 28
E 140 212 4
E 140 160 66
E 140 226 26
E 141 207 66
E 141 184 42
E 142 147 14
E 143 199 14
E 143 197 8
E 143 288 10
E 144 273 80
E 146 248 74
E 146 298 166
E 147 220 106
E 147 200 154
E 148 183 58
E 148 231 142
E 149 207 27
E 150 210 44
E 150 199 52
E 151 263 88
E 152 283 100
E 152 241 194
E 153 177 76
E 153 279 90
E 153 178 52
E 154 169 50
E 155 205 14
E 155 260 76
E 156 227 100
E 156 219 40
E 157 286 42
E 157 276 182
E 157 268 18
E 158 265 80
E 158 297 66
E 158 284 28
E 159 278 182
E 159 216 14
E 159 298 58
E 160 288 138
E 160 253 62
E 160 229 26
E 161 274 12
E 161 291 88
E 161 294 14
E 162 258 66
E 162 230 92
E 162 252 70
E 163 259 22
E 163 212 98
E 164 188 4
E 164 237 46
E 164 193 66
E 165 181 78
E 166 285 74
E 166 296 10
E 166 243 166
E 168 191 34
E 168 224 130
E 169 303 56
E 170 222 12
E 171 173 42
E 171 282 46
E 172 232 14
E 173 225 8
E 174 244 82
E 174 219 130
E 174 195 124
E 175 221 158
E 176 250 6
E 177 206 132
E 179 293 20
E 179 234 154
E 180 264 64
E 180 307 28
E 181 211 18
E 182 215 66
E 182 301 50
E 184 203 66
E 184 265 8
E 184 282 14
E 185 226 152
E 185 306 66
E 185 237 30
E 187 246 90
E 187 244 20
E 189 224 46
E 190 304 52
E 192 231 68
E 192 261 120
E 193 249 62
E 194 219 100
E 194 227 40
E 197 213 52
E 197 272 122
E 198 307 48
E 198 260 38
E 200 271 194
E 201 298 68
E 201 264 14
E 202 257 82
E 202 255 18
E 203 207 42
E 204 220 46
E 205 243 28
E 206 211 24
E 206 289 74
E 207 305 8
E 208 304 18
E 208 279 96
E 209 234 20
E 209 293 154
E 210 239 4
E 211 290 74
E 212 267 26
E 214 247 178
E 214 245 92
E 215 251 4
E 218 225 46
E 221 280 166
E 221 235 20
E 222 297 80
E 223 247 66
E 224 251 52
E 225 280 20
E 226 267 4
E 226 229 66
E 227 241 6
E 228 241 46
E 229 277 62
E 229 306 152
E 230 236 130
E 233 253 68
E 233 254 138
E 233 262 26
E 234 250 66
E 236 245 34
E 238 302 158
E 239 285 42
E 242 278 166
E 245 287 8
E 248 292 68
E 252 275 66
E 253 277 26
E 254 272 10
E 256 306 62
E 256 277 152
E 258 270 76
E 258 275 70
E 259 287 178
E 261 263 54
E 262 277 68
E 262 274 32
E 266 272 44
E 266 291 86
E 269 295 96
E 270 273 70
E 271 299 106
E 273 275 76
E 276 302 42
E 276 283 170
E 280 300 74
E 286 302 182
E 289 290 24
E 300 301 80
END

SECTION StochasticProbabilities
SP 0.22730 0.20460 0.29550 0.11360 0.15900
END

SECTION StochasticWeights
SE 183 182 192 203 206 
SE 197 213 186 186 200 
SE 51 52 54 51 56 
SE 16 18 16 17 16 
SE 135 128 117 134 119 
SE 53 55 58 56 57 
SE 7 7 7 7 7 
SE 50 50 45 47 44 
SE 95 98 92 104 91 
SE 7 7 7 7 7 
SE 169 147 151 156 161 
SE 50 44 48 48 44 
SE 59 58 62 62 56 
SE 141 142 137 145 143 
SE 144 149 145 134 134 
SE 112 115 102 104 114 
SE 48 50 48 45 52 
SE 24 26 24 25 24 
SE 174 168 174 185 176 
SE 62 65 65 59 60 
SE 169 189 191 195 188 
SE 5 5 5 5 5 
SE 38 39 36 37 38 
SE 51 53 51 57 59 
SE 155 150 137 156 144 
SE 7 7 7 7 7 
SE 22 26 25 25 22 
SE 166 150 153 143 142 
SE 103 102 102 102 100 
SE 64 58 65 58 59 
SE 90 95 92 96 89 
SE 22 21 20 23 23 
SE 100 100 101 110 107 
SE 111 111 115 106 124 
SE 133 125 132 122 117 
SE 220 221 251 234 221 
SE 201 215 200 189 190 
SE 18 16 16 16 18 
SE 25 25 24 26 22 
SE 63 65 59 61 64 
SE 49 51 51 47 52 
SE 92 106 99 91 91 
SE 188 168 173 171 184 
SE 26 25 25 27 26 
SE 199 204 200 224 215 
SE 58 56 53 58 56 
SE 41 38 43 44 38 
SE 13 11 12 12 13 
SE 21 22 21 22 20 
SE 53 47 50 54 48 
SE 114 114 109 117 117 
SE 157 169 166 157 174 
SE 97 106 101 108 101 
SE 62 67 60 68 62 
SE 100 90 101 86 101 
SE 5 5 5 5 5 
SE 56 53 52 55 56 
SE 32 36 31 34 31 
SE 236 216 204 209 201 
SE 197 174 177 189 192 
SE 66 65 71 73 65 
SE 53 59 53 57 52 
SE 141 138 151 159 139 
SE 100 97 98 99 108 
SE 142 148 134 143 126 
SE 112 102 111 104 112 
SE 18 18 18 17 16 
SE 33 31 31 36 33 
SE 16 17 16 16 16 
SE 53 53 56 51 54 
SE 128 122 125 116 128 
SE 147 142 140 156 161 
SE 52 56 51 52 59 
SE 249 234 230 250 235 
SE 18 18 16 16 16 
SE 74 70 74 64 70 
SE 31 32 31 32 32 
SE 76 78 82 75 79 
SE 9 9 9 9 9 
SE 16 16 18 17 16 
SE 47 48 53 52 47 
SE 57 53 53 55 55 
SE 163 147 143 143 166 
SE 157 151 148 156 141 
SE 7 7 7 7 7 
SE 202 193 197 215 210 
SE 12 13 13 13 12 
SE 63 61 64 59 62 
SE 65 69 67 62 60 
SE 29 33 29 31 32 
SE 73 85 80 73 85 
SE 38 43 43 42 42 
SE 103 108 118 110 107 
SE 159 150 161 164 144 
SE 32 33 31 35 31 
SE 195 192 211 209 206 
SE 11 13 11 13 11 
SE 60 63 61 66 61 
SE 60 59 58 62 64 
SE 93 95 89 85 93 
SE 22 20 23 21 23 
SE 82 83 82 92 94 
SE 210 222 201 230 219 
SE 203 215 190 190 213 
SE 72 71 73 75 68 
SE 107 106 105 114 110 
SE 52 53 55 54 57 
SE 80 89 83 80 89 
SE 16 16 18 16 16 
SE 14 14 14 15 15 
SE 60 60 60 58 67 
SE 62 56 63 61 62 
SE 64 62 68 64 63 
SE 41 37 41 36 38 
SE 133 135 132 136 139 
SE 79 81 82 82 84 
SE 62 66 65 58 60 
SE 96 85 91 95 85 
SE 25 27 28 26 25 
SE 95 92 84 97 87 
SE 16 16 18 17 17 
SE 105 112 104 107 104 
SE 58 58 67 61 60 
SE 169 170 178 160 171 
SE 201 208 205 212 229 
SE 146 150 144 146 132 
SE 64 64 72 74 68 
SE 70 62 62 65 69 
SE 69 66 64 64 67 
SE 40 36 39 36 37 
SE 91 85 98 90 89 
SE 38 41 38 38 43 
SE 156 161 167 149 144 
SE 85 93 97 86 97 
SE 186 187 200 186 180 
SE 110 104 103 108 114 
SE 18 17 17 16 17 
SE 11 11 13 12 13 
SE 33 35 33 36 35 
SE 11 13 12 12 12 
SE 56 61 62 57 60 
SE 7 7 7 7 7 
SE 17 18 16 17 18 
SE 31 35 36 32 34 
SE 214 230 209 227 219 
SE 91 86 89 83 86 
SE 79 73 74 75 80 
SE 9 9 10 9 9 
SE 18 16 16 17 16 
SE 111 105 103 111 113 
SE 99 94 99 88 92 
SE 13 12 13 11 13 
SE 62 66 67 60 63 
SE 51 54 47 49 52 
SE 74 79 85 83 73 
SE 15 15 14 15 14 
SE 77 74 70 80 69 
SE 9 9 10 9 9 
SE 54 58 57 51 55 
SE 5 5 5 5 5 
SE 15 14 14 14 14 
SE 138 124 134 127 124 
SE 76 74 72 73 71 
SE 86 82 90 88 88 
SE 12 12 12 12 12 
SE 52 54 58 58 56 
SE 101 87 100 93 92 
SE 13 13 13 13 14 
SE 146 150 140 138 134 
SE 9 9 9 9 9 
SE 12 12 12 12 12 
SE 147 142 138 140 156 
SE 28 26 25 26 28 
SE 54 52 56 55 59 
SE 154 153 168 168 163 
SE 11 13 13 12 12 
SE 81 81 82 73 84 
SE 173 157 170 152 155 
SE 183 177 181 171 195 
SE 11 13 13 12 13 
SE 18 17 16 16 16 
SE 141 135 129 130 137 
SE 201 215 211 186 201 
SE 113 111 113 102 100 
SE 27 28 25 27 27 
SE 75 73 66 64 65 
SE 226 241 234 234 248 
SE 125 128 125 120 119 
SE 7 7 7 7 7 
SE 107 108 115 111 116 
SE 14 14 15 15 15 
SE 51 54 47 48 52 
SE 60 61 59 65 59 
SE 90 94 94 88 93 
SE 16 17 16 16 16 
SE 59 58 58 58 51 
SE 9 9 9 9 10 
SE 43 44 39 42 42 
SE 157 161 158 162 154 
SE 140 130 143 131 130 
SE 23 21 23 22 21 
SE 13 12 11 11 11 
SE 16 16 17 16 17 
SE 15 14 14 15 14 
SE 94 87 86 97 84 
SE 90 87 95 85 90 
SE 26 28 27 25 26 
SE 9 9 9 9 10 
SE 90 101 99 98 97 
SE 14 14 15 15 14 
SE 64 70 68 67 68 
SE 227 230 229 202 218 
SE 202 216 206 205 211 
SE 64 70 75 72 75 
SE 150 135 142 141 149 
SE 159 161 182 166 171 
SE 104 103 106 97 112 
SE 74 69 75 65 70 
SE 62 68 71 62 64 
SE 67 67 62 61 66 
SE 194 189 201 209 201 
SE 75 85 75 87 88 
SE 134 126 122 120 119 
SE 88 88 84 90 91 
SE 216 211 210 222 230 
SE 101 106 93 95 92 
SE 17 18 16 18 18 
SE 64 69 60 66 70 
SE 60 58 66 66 67 
SE 31 35 34 36 36 
SE 82 88 75 84 87 
SE 56 55 61 59 62 
SE 77 73 72 72 81 
SE 66 60 60 60 66 
SE 88 90 92 89 93 
SE 200 191 198 197 176 
SE 17 16 16 18 17 
SE 59 58 58 59 63 
SE 127 122 133 130 125 
SE 61 60 68 70 60 
SE 204 218 216 219 195 
SE 136 134 133 135 152 
SE 101 101 101 116 108 
SE 65 65 63 66 65 
SE 12 12 12 11 12 
SE 134 138 127 138 129 
SE 162 155 151 170 151 
SE 40 36 38 36 38 
SE 85 84 87 92 98 
SE 213 203 210 218 221 
SE 75 73 82 74 82 
SE 100 91 103 94 96 
SE 189 186 179 177 173 
SE 170 170 195 195 185 
SE 73 84 80 76 85 
SE 93 99 88 90 94 
SE 35 33 31 34 33 
SE 152 173 149 162 153 
SE 82 73 77 80 74 
SE 88 91 90 86 90 
SE 10 10 9 10 9 
SE 17 16 16 16 17 
SE 51 57 51 51 56 
SE 53 52 47 51 50 
SE 63 63 64 64 60 
SE 102 109 106 116 110 
SE 9 10 9 10 9 
SE 212 230 223 201 200 
SE 51 55 53 55 53 
SE 235 227 247 242 247 
SE 10 9 9 10 9 
SE 104 91 90 97 103 
SE 98 92 91 102 88 
SE 78 73 83 78 76 
SE 66 60 60 70 64 
SE 188 214 220 209 210 
SE 64 72 70 74 72 
SE 92 95 84 87 82 
SE 79 83 76 75 75 
SE 188 207 192 183 207 
SE 82 83 74 71 73 
SE 22 24 26 23 24 
SE 23 20 21 21 20 
SE 97 91 98 100 97 
SE 143 127 135 134 143 
SE 61 62 62 66 62 
SE 9 9 10 10 9 
SE 90 97 92 102 101 
SE 40 36 38 41 39 
SE 199 199 199 186 194 
SE 72 72 78 71 71 
SE 17 17 16 17 16 
SE 13 12 13 13 11 
SE 106 105 97 102 91 
SE 64 68 61 60 70 
SE 26 23 25 26 23 
SE 141 161 147 155 140 
SE 92 93 94 93 92 
SE 56 64 56 59 59 
SE 83 85 82 91 96 
SE 84 73 74 73 83 
SE 152 141 151 161 155 
SE 18 17 19 17 18 
SE 62 59 58 57 53 
SE 108 108 104 112 118 
SE 90 85 84 85 87 
SE 166 146 142 156 142 
SE 46 44 52 45 45 
SE 161 146 145 163 154 
SE 52 46 45 52 50 
SE 84 91 86 90 90 
SE 213 226 220 205 225 
SE 60 61 60 66 61 
SE 176 182 157 181 159 
SE 207 236 217 204 215 
SE 69 74 64 74 64 
SE 83 75 84 82 86 
SE 173 162 171 172 173 
SE 73 69 78 78 78 
SE 36 37 34 36 36 
SE 47 54 51 52 47 
SE 58 58 51 51 56 
SE 88 98 94 93 86 
SE 100 97 104 91 89 
SE 9 10 10 9 9 
SE 25 26 27 25 25 
SE 107 117 123 111 118 
SE 168 168 147 153 166 
SE 74 64 72 75 68 
SE 62 62 65 62 66 
SE 69 64 63 67 62 
SE 109 106 109 122 112 
SE 12 11 13 12 11 
SE 50 49 51 54 51 
SE 105 111 118 113 103 
SE 101 115 100 114 102 
SE 14 14 14 14 14 
SE 97 100 89 96 100 
SE 11 13 12 12 12 
SE 53 54 58 58 53 
SE 181 198 182 177 172 
SE 71 71 69 75 64 
SE 38 44 40 42 44 
SE 154 147 166 153 164 
SE 51 48 53 52 52 
SE 56 53 51 54 57 
SE 76 79 87 76 88 
SE 74 77 72 81 77 
SE 249 233 236 241 229 
SE 125 136 133 127 121 
SE 194 194 177 180 198 
SE 75 75 85 77 75 
SE 33 39 35 39 39 
SE 51 58 58 56 58 
SE 20 21 21 23 20 
SE 53 49 50 47 51 
SE 47 45 45 47 50 
SE 24 25 22 25 23 
SE 23 20 21 20 20 
SE 105 113 100 102 100 
SE 34 36 36 35 36 
SE 5 5 5 5 5 
SE 73 73 73 78 84 
SE 29 31 29 30 29 
SE 78 81 85 77 75 
SE 48 49 47 49 50 
SE 17 17 17 16 17 
SE 16 16 16 17 18 
SE 9 9 9 10 9 
SE 11 13 11 13 13 
SE 88 100 91 98 101 
SE 88 85 82 86 87 
SE 201 205 207 210 205 
SE 135 125 135 136 134 
SE 198 190 179 188 200 
SE 74 68 64 65 71 
SE 169 164 179 180 158 
SE 30 35 30 30 33 
SE 54 54 52 57 53 
SE 66 62 65 60 66 
SE 101 101 111 97 105 
SE 111 124 129 117 130 
SE 220 231 230 239 229 
SE 89 86 94 84 98 
SE 115 102 111 100 111 
SE 62 61 64 66 59 
SE 61 60 64 60 59 
SE 17 17 16 17 17 
SE 84 92 86 96 86 
SE 130 120 114 126 112 
SE 50 47 49 45 48 
SE 48 50 54 49 49 
SE 218 227 234 201 218 
SE 23 23 20 20 21 
SE 95 91 103 94 104 
SE 83 73 74 74 80 
SE 31 36 31 31 32 
SE 214 201 227 201 208 
SE 17 17 17 16 18 
SE 70 74 66 65 66 
SE 177 169 152 171 156 
SE 79 78 70 75 78 
SE 30 30 31 29 30 
SE 15 14 14 14 15 
SE 114 105 109 102 109 
SE 16 16 18 16 16 
SE 79 78 83 73 79 
SE 107 115 111 118 102 
SE 86 89 87 78 82 
SE 25 27 26 28 28 
SE 124 122 125 117 112 
SE 5 5 5 5 5 
SE 53 57 58 55 57 
SE 76 79 80 73 75 
SE 95 92 91 94 94 
SE 95 88 82 91 83 
SE 11 13 12 11 11 
SE 190 186 198 196 209 
SE 38 39 43 42 38 
SE 156 164 164 164 168 
SE 72 66 62 68 63 
SE 14 15 14 15 15 
SE 52 52 47 52 47 
SE 52 56 57 56 51 
SE 17 17 17 17 18 
SE 10 9 9 9 9 
SE 104 105 101 104 91 
SE 167 154 167 145 162 
SE 145 138 146 142 144 
SE 191 200 179 196 188 
SE 7 7 7 7 7 
SE 160 147 159 168 163 
SE 24 23 24 22 25 
SE 188 172 174 177 197 
SE 81 79 71 80 76 
SE 36 35 31 34 35 
SE 20 22 23 23 21 
SE 76 85 83 83 85 
SE 59 57 60 57 63 
SE 79 79 85 85 82 
SE 9 9 9 9 9 
SE 17 18 18 17 16 
SE 193 186 170 178 190 
SE 73 83 73 75 74 
SE 33 34 33 33 36 
SE 100 105 105 106 100 
SE 26 23 23 26 23 
SE 54 51 51 51 59 
SE 58 58 58 66 59 
SE 81 76 83 86 85 
SE 134 138 147 133 139 
SE 80 80 74 78 73 
SE 129 124 130 128 130 
SE 44 44 47 51 44 
SE 58 64 59 63 65 
SE 138 145 151 157 150 
SE 54 53 61 53 57 
SE 46 49 42 47 48 
SE 219 244 227 246 230 
SE 86 81 82 78 75 
SE 17 16 18 16 16 
SE 97 91 93 94 104 
SE 20 20 21 23 20 
SE 54 47 47 53 47 
SE 59 52 51 53 52 
SE 34 34 31 35 31 
SE 31 28 27 27 29 
SE 86 95 96 94 86 
SE 9 9 9 10 10 
SE 21 23 23 23 22 
SE 110 106 109 122 116 
SE 25 23 26 24 25 
SE 170 189 174 184 193 
SE 5 5 5 5 5 
SE 89 93 84 92 91 
SE 32 33 32 31 33 
SE 228 222 221 212 220 
SE 119 106 119 117 102 
SE 5 5 5 5 5 
SE 58 52 51 51 58 
SE 196 183 183 213 207 
SE 25 25 25 22 22 
SE 89 98 92 88 95 
SE 73 78 75 73 74 
SE 61 58 67 58 58 
SE 25 24 22 26 22 
SE 5 5 5 5 5 
SE 83 78 85 73 76 
SE 7 7 7 7 7 
SE 56 51 55 52 59 
SE 70 80 76 75 80 
SE 192 188 173 196 193 
SE 166 162 149 152 147 
SE 78 76 80 82 80 
SE 152 157 169 158 171 
SE 33 29 32 30 32 
SE 82 76 76 85 73 
SE 42 40 38 38 41 
SE 198 204 188 188 200 
SE 54 50 51 53 47 
SE 207 210 192 194 212 
SE 9 9 10 10 9 
SE 76 87 78 81 77 
SE 73 76 73 85 84 
SE 30 32 30 32 30 
SE 12 12 13 11 12 
SE 74 77 76 74 69 
SE 179 175 176 175 190 
SE 88 88 93 88 96 
SE 80 85 82 82 84 
SE 219 197 220 197 218 
SE 62 67 68 67 63 
SE 86 87 85 86 78 
SE 41 37 36 40 36 
SE 51 56 49 57 56 
SE 110 110 100 95 98 
SE 118 124 118 118 119 
SE 90 90 81 82 79 
SE 125 132 125 120 137 
SE 89 95 89 88 96 
SE 54 51 50 47 53 
SE 188 200 218 191 205 
SE 86 92 88 94 86 
SE 227 206 223 207 216 
SE 27 27 31 30 28 
SE 104 96 90 96 90 
END

SECTION StochasticTerminals
ST 1 1 0 0 0 0 
ST 2 0 0 0 0 0 
ST 3 0 1 0 0 0 
ST 4 0 0 0 0 0 
ST 5 0 0 0 0 1 
ST 6 0 0 0 0 0 
ST 7 1 0 0 0 0 
ST 8 0 0 0 0 0 
ST 9 0 0 0 0 0 
ST 10 0 0 0 0 0 
ST 11 0 0 0 0 0 
ST 12 0 0 0 0 0 
ST 13 0 0 0 0 0 
ST 14 0 0 0 0 0 
ST 15 0 0 0 0 0 
ST 16 0 0 0 0 0 
ST 17 0 0 1 0 0 
ST 18 0 0 0 0 0 
ST 19 0 0 0 0 0 
ST 20 0 0 0 0 1 
ST 21 0 0 0 0 0 
ST 22 0 0 0 0 0 
ST 23 0 0 0 1 0 
ST 24 0 0 0 0 0 
ST 25 0 1 1 0 0 
ST 26 0 0 0 0 0 
ST 27 0 0 0 0 0 
ST 28 0 0 0 0 1 
ST 29 0 0 0 0 0 
ST 30 0 0 0 0 0 
ST 31 0 1 0 0 0 
ST 32 0 0 0 0 0 
ST 33 0 0 0 0 0 
ST 34 0 1 0 0 0 
ST 35 0 0 0 0 0 
ST 36 0 0 0 0 0 
ST 37 0 0 0 0 0 
ST 38 0 0 0 1 0 
ST 39 0 0 0 0 0 
ST 40 0 0 0 0 0 
ST 41 0 0 0 0 0 
ST 42 1 0 0 0 0 
ST 43 0 0 1 0 0 
ST 44 0 0 0 0 0 
ST 45 1 1 1 1 1 
ST 46 0 0 0 0 0 
ST 47 0 1 0 0 0 
ST 48 0 0 0 0 1 
ST 49 0 0 0 0 0 
ST 50 0 0 0 0 0 
ST 51 0 0 0 0 0 
ST 52 0 0 0 0 0 
ST 53 0 0 0 0 0 
ST 54 0 0 0 0 0 
ST 55 0 0 0 0 1 
ST 56 0 0 0 1 0 
ST 57 0 0 0 0 0 
ST 58 0 0 0 0 0 
ST 59 0 0 0 0 0 
ST 60 0 0 0 0 0 
ST 61 0 0 0 1 0 
ST 62 0 0 0 0 0 
ST 63 0 0 0 0 0 
ST 64 0 0 0 0 0 
ST 65 0 0 0 0 0 
ST 66 0 1 0 0 0 
ST 67 0 1 0 0 0 
ST 68 0 0 0 0 0 
ST 69 0 0 0 0 0 
ST 70 0 0 0 0 0 
ST 71 0 1 0 0 0 
ST 72 0 1 0 0 0 
ST 73 0 0 0 0 0 
ST 74 0 0 1 0 0 
ST 75 1 0 0 0 0 
ST 76 0 1 0 0 0 
ST 77 1 0 0 0 0 
ST 78 0 0 0 0 0 
ST 79 0 1 0 0 0 
ST 80 0 0 0 0 0 
ST 81 0 0 0 0 0 
ST 82 0 0 0 1 0 
ST 83 1 0 0 0 0 
ST 84 0 0 0 0 0 
ST 85 0 0 0 0 0 
ST 86 0 0 0 0 0 
ST 87 0 0 0 0 0 
ST 88 0 0 0 0 0 
ST 89 0 0 0 0 0 
ST 90 0 0 0 0 0 
ST 91 0 0 0 0 0 
ST 92 0 0 0 0 0 
ST 93 1 0 0 0 0 
ST 94 0 0 0 0 0 
ST 95 1 0 0 0 0 
ST 96 0 0 0 0 1 
ST 97 0 0 0 0 0 
ST 98 0 0 0 0 0 
ST 99 0 0 0 0 0 
ST 100 0 0 0 0 0 
ST 101 0 0 0 0 0 
ST 102 0 0 0 0 1 
ST 103 0 0 0 0 0 
ST 104 0 1 0 0 0 
ST 105 0 1 0 0 0 
ST 106 0 0 0 0 0 
ST 107 0 0 0 0 0 
ST 108 1 0 0 0 0 
ST 109 0 0 0 0 1 
ST 110 0 0 0 0 0 
ST 111 0 0 0 0 0 
ST 112 0 0 0 1 0 
ST 113 0 0 0 0 0 
ST 114 0 0 0 0 0 
ST 115 0 0 0 0 0 
ST 116 0 0 0 0 0 
ST 117 0 0 0 0 0 
ST 118 1 0 1 0 0 
ST 119 0 0 0 0 0 
ST 120 0 0 0 0 0 
ST 121 0 0 0 0 0 
ST 122 0 0 0 0 0 
ST 123 0 0 0 0 0 
ST 124 0 0 0 0 0 
ST 125 0 0 0 0 0 
ST 126 0 0 0 0 0 
ST 127 0 0 0 0 0 
ST 128 0 0 0 0 1 
ST 129 0 0 0 0 0 
ST 130 0 0 0 0 0 
ST 131 0 0 0 0 0 
ST 132 0 0 0 0 0 
ST 133 1 0 0 0 0 
ST 134 0 0 0 0 0 
ST 135 0 0 0 1 0 
ST 136 0 0 0 0 1 
ST 137 0 0 0 0 0 
ST 138 0 0 0 1 0 
ST 139 0 0 0 0 0 
ST 140 0 0 0 0 0 
ST 141 0 0 1 0 0 
ST 142 1 0 0 0 1 
ST 143 0 0 0 0 0 
ST 144 0 0 0 0 0 
ST 145 1 0 0 0 0 
ST 146 0 0 1 0 0 
ST 147 0 0 0 0 0 
ST 148 0 1 0 0 0 
ST 149 0 0 1 1 0 
ST 150 0 0 0 0 0 
ST 151 0 0 0 0 0 
ST 152 0 0 0 0 0 
ST 153 0 1 0 0 0 
ST 154 0 0 0 0 0 
ST 155 0 0 0 0 0 
ST 156 0 0 1 0 0 
ST 157 0 0 1 0 0 
ST 158 0 0 0 0 0 
ST 159 0 0 0 1 0 
ST 160 0 0 0 0 0 
ST 161 0 0 0 0 0 
ST 162 0 0 0 0 0 
ST 163 0 0 0 1 0 
ST 164 0 0 0 0 0 
ST 165 0 0 0 0 0 
ST 166 0 0 0 0 0 
ST 167 0 0 0 0 1 
ST 168 0 0 0 0 0 
ST 169 0 0 0 0 0 
ST 170 0 0 0 0 0 
ST 171 0 0 0 1 0 
ST 172 0 0 0 0 0 
ST 173 0 0 0 0 0 
ST 174 0 0 1 0 0 
ST 175 0 0 0 0 0 
ST 176 0 0 0 0 0 
ST 177 0 0 0 0 0 
ST 178 0 0 0 0 0 
ST 179 0 0 0 0 0 
ST 180 0 0 0 0 0 
ST 181 0 0 0 0 0 
ST 182 0 0 1 0 0 
ST 183 0 0 0 0 0 
ST 184 0 0 0 0 1 
ST 185 0 0 0 0 0 
ST 186 0 0 0 0 0 
ST 187 0 0 0 0 0 
ST 188 0 0 0 0 0 
ST 189 0 0 0 0 0 
ST 190 0 0 0 0 0 
ST 191 0 0 0 0 0 
ST 192 0 0 0 0 0 
ST 193 0 0 0 0 1 
ST 194 0 0 0 0 0 
ST 195 0 0 0 0 0 
ST 196 0 0 0 0 0 
ST 197 0 0 0 0 0 
ST 198 0 0 0 0 0 
ST 199 1 0 0 0 1 
ST 200 0 0 0 0 0 
ST 201 0 0 0 0 0 
ST 202 0 0 0 0 0 
ST 203 0 0 0 0 0 
ST 204 0 0 1 0 0 
ST 205 0 0 0 0 0 
ST 206 0 1 0 0 0 
ST 207 0 0 0 0 0 
ST 208 0 0 0 0 1 
ST 209 1 0 0 0 0 
ST 210 0 1 0 0 0 
ST 211 0 0 0 0 0 
ST 212 0 0 0 0 0 
ST 213 0 0 1 0 0 
ST 214 0 0 0 0 0 
ST 215 0 0 0 0 0 
ST 216 0 0 0 0 0 
ST 217 0 0 0 0 0 
ST 218 0 0 0 0 0 
ST 219 1 0 0 0 0 
ST 220 0 0 1 0 0 
ST 221 0 0 0 0 0 
ST 222 0 0 0 0 0 
ST 223 0 1 0 0 0 
ST 224 0 0 0 0 0 
ST 225 0 0 0 0 0 
ST 226 0 0 0 0 1 
ST 227 0 0 0 0 0 
ST 228 0 0 0 0 0 
ST 229 0 0 0 0 0 
ST 230 0 0 0 0 0 
ST 231 0 0 0 0 0 
ST 232 0 0 0 0 0 
ST 233 0 0 0 0 0 
ST 234 0 0 0 0 0 
ST 235 0 0 0 0 0 
ST 236 0 1 0 0 0 
ST 237 0 0 0 0 0 
ST 238 0 0 1 0 0 
ST 239 0 0 1 0 0 
ST 240 0 0 0 0 0 
ST 241 0 0 1 0 0 
ST 242 0 0 0 0 0 
ST 243 0 0 0 0 0 
ST 244 0 0 1 0 0 
ST 245 0 0 0 0 0 
ST 246 0 0 0 0 0 
ST 247 0 0 0 1 0 
ST 248 0 0 0 0 1 
ST 249 0 0 0 0 0 
ST 250 0 0 0 0 0 
ST 251 0 0 0 0 0 
ST 252 0 0 0 0 0 
ST 253 0 0 0 0 1 
ST 254 0 0 0 0 0 
ST 255 0 0 1 0 0 
ST 256 1 0 0 1 0 
ST 257 0 0 0 0 0 
ST 258 0 0 0 0 0 
ST 259 0 0 0 0 0 
ST 260 0 0 0 0 0 
ST 261 0 0 0 0 0 
ST 262 0 0 0 1 0 
ST 263 0 0 0 0 0 
ST 264 0 0 0 0 0 
ST 265 0 0 0 0 0 
ST 266 0 0 0 0 0 
ST 267 0 0 0 0 0 
ST 268 0 0 0 0 0 
ST 269 0 0 1 0 0 
ST 270 0 1 0 0 0 
ST 271 0 0 0 1 0 
ST 272 0 0 1 0 0 
ST 273 0 0 0 0 0 
ST 274 0 0 0 0 0 
ST 275 0 1 0 0 0 
ST 276 0 0 0 0 0 
ST 277 0 0 0 0 0 
ST 278 0 0 0 0 0 
ST 279 0 0 0 0 1 
ST 280 0 0 0 0 0 
ST 281 0 0 0 0 0 
ST 282 1 0 0 0 0 
ST 283 0 0 0 0 0 
ST 284 1 0 1 0 0 
ST 285 0 0 0 0 0 
ST 286 0 0 0 0 1 
ST 287 0 0 0 0 0 
ST 288 0 0 0 0 0 
ST 289 0 0 0 0 0 
ST 290 0 0 0 0 0 
ST 291 0 0 0 0 1 
ST 292 0 0 0 0 0 
ST 293 0 0 0 0 0 
ST 294 0 0 0 0 0 
ST 295 0 0 0 0 0 
ST 296 0 0 1 0 0 
ST 297 0 0 0 0 0 
ST 298 1 0 0 0 0 
ST 299 0 0 0 0 0 
ST 300 1 0 0 0 0 
ST 301 0 0 0 0 0 
ST 302 0 0 1 0 0 
ST 303 0 0 0 0 0 
ST 304 0 0 0 0 0 
ST 305 0 0 0 1 0 
ST 306 0 1 0 0 0 
ST 307 0 0 0 0 0 
END


SECTION Coordinates
DD 1 0 0
DD 2 386 106
DD 3 912 106
DD 4 742 382
DD 5 284 676
DD 6 702 484
DD 7 314 908
DD 8 872 106
DD 9 742 484
DD 10 0 908
DD 11 316 252
DD 12 918 0
DD 13 386 484
DD 14 702 464
DD 15 314 1006
DD 16 316 152
DD 17 596 1128
DD 18 284 908
DD 19 930 622
DD 20 684 1028
DD 21 466 550
DD 22 66 618
DD 23 748 152
DD 24 872 650
DD 25 66 776
DD 26 748 252
DD 27 692 664
DD 28 518 1128
DD 29 280 1128
DD 30 702 830
DD 31 334 328
DD 32 930 830
DD 33 238 556
DD 34 452 676
DD 35 32 162
DD 36 554 550
DD 37 168 328
DD 38 386 252
DD 39 1112 1270
DD 40 400 676
DD 41 32 270
DD 42 280 1194
DD 43 400 252
DD 44 730 650
DD 45 136 328
DD 46 742 464
DD 47 1112 650
DD 48 80 784
DD 49 0 1036
DD 50 334 152
DD 51 226 838
DD 52 284 726
DD 53 226 904
DD 54 0 162
DD 55 740 904
DD 56 518 1028
DD 57 284 556
DD 58 630 830
DD 59 280 1006
DD 60 630 904
DD 61 400 162
DD 62 168 0
DD 63 146 162
DD 64 918 252
DD 65 334 252
DD 66 226 776
DD 67 66 646
DD 68 280 1028
DD 69 334 110
DD 70 386 152
DD 71 226 908
DD 72 146 252
DD 73 238 726
DD 74 930 1074
DD 75 684 1270
DD 76 88 328
DD 77 872 1074
DD 78 492 1270
DD 79 386 382
DD 80 804 622
DD 81 554 328
DD 82 386 464
DD 83 1112 0
DD 84 804 1074
DD 85 168 162
DD 86 32 460
DD 87 314 1194
DD 88 554 382
DD 89 596 1270
DD 90 0 1128
DD 91 146 618
DD 92 518 1074
DD 93 66 726
DD 94 596 1028
DD 95 168 110
DD 96 492 1036
DD 97 1112 106
DD 98 146 726
DD 99 1112 1074
DD 100 0 270
DD 101 804 830
DD 102 316 464
DD 103 452 550
DD 104 226 726
DD 105 32 328
DD 106 740 664
DD 107 400 382
DD 108 748 464
DD 109 146 858
DD 110 748 484
DD 111 507 1028
DD 112 872 622
DD 113 80 1036
DD 114 912 382
DD 115 1112 904
DD 116 168 152
DD 117 930 1128
DD 118 804 1270
DD 119 284 776
DD 120 0 1194
DD 121 150 1028
DD 122 742 252
DD 123 0 328
DD 124 88 270
DD 125 334 0
DD 126 316 328
DD 127 220 152
DD 128 554 252
DD 129 226 734
DD 130 554 152
DD 131 930 904
DD 132 280 1270
DD 133 238 734
DD 134 804 574
DD 135 554 106
DD 136 284 838
DD 137 912 464
DD 138 334 484
DD 139 20 646
DD 140 492 904
DD 141 80 776
DD 142 386 0
DD 143 640 838
DD 144 0 1270
DD 145 314 1270
DD 146 872 830
DD 147 400 0
DD 148 872 1270
DD 149 173 776
DD 150 640 904
DD 151 596 1074
DD 152 1112 152
DD 153 220 252
DD 154 88 162
DD 155 702 650
DD 156 912 252
DD 157 930 422
DD 158 80 646
DD 159 930 664
DD 160 492 838
DD 161 466 664
DD 162 150 1128
DD 163 492 1006
DD 164 238 904
DD 165 316 484
DD 166 730 830
DD 167 645 252
DD 168 280 960
DD 169 88 212
DD 170 238 646
DD 171 20 734
DD 172 386 328
DD 173 20 776
DD 174 872 382
DD 175 0 460
DD 176 400 556
DD 177 220 328
DD 178 168 252
DD 179 554 484
DD 180 740 650
DD 181 238 484
DD 182 80 908
DD 183 930 1270
DD 184 80 734
DD 185 314 904
DD 186 1112 1128
DD 187 872 484
DD 188 238 908
DD 189 150 1006
DD 190 386 162
DD 191 314 960
DD 192 804 1128
DD 193 238 838
DD 194 872 152
DD 195 748 382
DD 196 702 382
DD 197 640 830
DD 198 740 574
DD 199 640 852
DD 200 554 0
DD 201 804 664
DD 202 334 382
DD 203 146 734
DD 204 400 152
DD 205 702 664
DD 206 220 460
DD 207 146 776
DD 208 316 162
DD 209 400 464
DD 210 684 904
DD 211 220 484
DD 212 492 908
DD 213 692 830
DD 214 314 1128
DD 215 146 908
DD 216 930 650
DD 217 554 162
DD 218 66 784
DD 219 872 252
DD 220 400 106
DD 221 0 618
DD 222 226 646
DD 223 492 1194
DD 224 150 960
DD 225 20 784
DD 226 466 904
DD 227 912 152
DD 228 918 106
DD 229 466 838
DD 230 150 1036
DD 231 872 1128
DD 232 400 328
DD 233 492 708
DD 234 400 484
DD 235 20 618
DD 236 280 1036
DD 237 284 904
DD 238 1112 622
DD 239 688 904
DD 240 284 734
DD 241 918 152
DD 242 1112 830
DD 243 730 664
DD 244 872 464
DD 245 314 1036
DD 246 872 574
DD 247 492 1128
DD 248 872 904
DD 249 238 776
DD 250 400 550
DD 251 150 908
DD 252 80 1128
DD 253 492 776
DD 254 630 708
DD 255 316 382
DD 256 314 776
DD 257 334 464
DD 258 150 1194
DD 259 492 1028
DD 260 702 574
DD 261 684 1128
DD 262 466 708
DD 263 684 1074
DD 264 804 650
DD 265 80 726
DD 266 640 664
DD 267 466 908
DD 268 912 422
DD 269 220 110
DD 270 150 1270
DD 271 748 0
DD 272 640 708
DD 273 80 1270
DD 274 466 676
DD 275 80 1194
DD 276 1112 422
DD 277 466 776
DD 278 1112 664
DD 279 220 162
DD 280 0 784
DD 281 146 328
DD 282 66 734
DD 283 1112 252
DD 284 80 618
DD 285 730 904
DD 286 930 464
DD 287 314 1028
DD 288 630 838
DD 289 146 460
DD 290 146 484
DD 291 554 664
DD 292 804 904
DD 293 554 464
DD 294 452 664
DD 295 316 110
DD 296 740 830
DD 297 146 646
DD 298 872 664
DD 299 748 106
DD 300 0 858
DD 301 80 858
DD 302 1112 464
DD 303 32 212
DD 304 334 162
DD 305 146 784
DD 306 314 838
DD 307 740 622
END

EOF
